networks/zoo_18_72/zoo_18_72.txt
Number of groups: 10
Flow 7: {2 8} {8 17} 
Flow 8: {1 2} {2 9} {9 18} 
Flow 19: {3 2} {2 4} {4 13} 
Flow 32: {4 9} 
Flow 38: {5 4} {4 2} {2 7} {7 16} 
Flow 43: {6 2} {2 3} {3 12} 
Flow 49: {7 2} {2 1} {1 10} 
Flow 62: {8 2} {2 6} {6 15} 
Flow 66: {9 2} {2 11} 
Flow 69: {9 4} {4 5} {5 14} 
Time taken running everything: 0 seconds
