networks/zoo_18_72/zoo_18_72.sol
<?xml version = "1.0" encoding="UTF-8" standalone="yes"?>
<CPLEXSolution version="1.2">
 <header
   problemName="networks/zoo_18_72/zoo_18_72.lp"
   solutionName="incumbent"
   solutionIndex="-1"
   objectiveValue="10"
   solutionTypeValue="3"
   solutionTypeString="primal"
   solutionStatusValue="101"
   solutionStatusString="integer optimal solution"
   solutionMethodString="mip"
   primalFeasible="1"
   dualFeasible="1"
   MIPNodes="0"
   MIPIterations="184"
   writeLevel="3"/>
 <quality
   epInt="1.0000000000000001e-05"
   epRHS="9.9999999999999995e-07"
   maxIntInfeas="0"
   maxPrimalInfeas="0"
   maxX="3"
   maxSlack="9"/>
 <variables>
  <variable name="Y(7,8)" index="115" value="1"/>
  <variable name="Y(8,9)" index="134" value="1"/>
  <variable name="Y(19,4)" index="327" value="1"/>
  <variable name="Y(32,4)" index="561" value="1"/>
  <variable name="Y(38,7)" index="672" value="1"/>
  <variable name="Y(43,3)" index="758" value="1"/>
  <variable name="Y(49,1)" index="864" value="1"/>
  <variable name="Y(62,6)" index="1103" value="1"/>
  <variable name="Y(66,2)" index="1171" value="1"/>
  <variable name="Y(69,5)" index="1228" value="1"/>
  <variable name="X(1,2,8)" index="1303" value="1"/>
  <variable name="X(1,10,49)" index="1416" value="1"/>
  <variable name="X(2,1,49)" index="1488" value="1"/>
  <variable name="X(2,3,43)" index="1554" value="1"/>
  <variable name="X(2,4,19)" index="1602" value="1"/>
  <variable name="X(2,6,62)" index="1717" value="1"/>
  <variable name="X(2,7,38)" index="1765" value="1"/>
  <variable name="X(2,8,7)" index="1806" value="1"/>
  <variable name="X(2,9,8)" index="1879" value="1"/>
  <variable name="X(2,11,66)" index="2009" value="1"/>
  <variable name="X(3,2,19)" index="2034" value="1"/>
  <variable name="X(3,12,43)" index="2130" value="1"/>
  <variable name="X(4,2,38)" index="2197" value="1"/>
  <variable name="X(4,5,69)" index="2300" value="1"/>
  <variable name="X(4,9,32)" index="2335" value="1"/>
  <variable name="X(4,13,19)" index="2394" value="1"/>
  <variable name="X(5,4,38)" index="2485" value="1"/>
  <variable name="X(5,14,69)" index="2588" value="1"/>
  <variable name="X(6,2,43)" index="2634" value="1"/>
  <variable name="X(6,15,62)" index="2725" value="1"/>
  <variable name="X(7,2,49)" index="2784" value="1"/>
  <variable name="X(7,16,38)" index="2845" value="1"/>
  <variable name="X(8,2,62)" index="2941" value="1"/>
  <variable name="X(8,17,7)" index="2958" value="1"/>
  <variable name="X(9,2,66)" index="3089" value="1"/>
  <variable name="X(9,4,69)" index="3164" value="1"/>
  <variable name="X(9,18,8)" index="3175" value="1"/>
  <variable name="C(7,8)" index="3260" value="1"/>
  <variable name="C(8,2)" index="3262" value="1"/>
  <variable name="C(8,9)" index="3263" value="2"/>
  <variable name="C(19,2)" index="3287" value="1"/>
  <variable name="C(19,4)" index="3288" value="2"/>
  <variable name="C(38,4)" index="3344" value="1"/>
  <variable name="C(38,2)" index="3345" value="2"/>
  <variable name="C(38,7)" index="3346" value="3"/>
  <variable name="C(43,2)" index="3360" value="1"/>
  <variable name="C(43,3)" index="3361" value="2"/>
  <variable name="C(49,2)" index="3379" value="1"/>
  <variable name="C(49,1)" index="3380" value="2"/>
  <variable name="C(62,2)" index="3418" value="1"/>
  <variable name="C(62,6)" index="3419" value="2"/>
  <variable name="C(66,2)" index="3430" value="1"/>
  <variable name="C(69,4)" index="3437" value="1"/>
  <variable name="C(69,5)" index="3438" value="2"/>
 </variables>
</CPLEXSolution>
